\ LP format - for model browsing. Use MPS format to capture full model detail.
Minimize
  14 xi_0_1 + 21 xi_0_2 + 33 xi_0_3 + 22 xi_0_4 + 23 xi_0_5 + 12 xi_0_6
   + 22 xi_0_7 + 32 xi_0_8 + 32 xi_0_9 + 21 xi_0_10 + 28 xi_0_11
   + 30 xi_0_12 + 29 xi_0_13 + 31 xi_0_14 + 30 xi_0_15 + 12 xi_1_2
   + 19 xi_1_3 + 12 xi_1_4 + 24 xi_1_5 + 12 xi_1_6 + 19 xi_1_7 + 21 xi_1_8
   + 27 xi_1_9 + 7 xi_1_10 + 19 xi_1_11 + 16 xi_1_12 + 21 xi_1_13
   + 33 xi_1_14 + 17 xi_1_15 + 14 xi_1_16 + 15 xi_2_3 + 22 xi_2_4
   + 16 xi_2_5 + 11 xi_2_6 + 9 xi_2_7 + 12 xi_2_8 + 15 xi_2_9 + 11 xi_2_10
   + 29 xi_2_11 + 19 xi_2_12 + 9 xi_2_13 + 24 xi_2_14 + 23 xi_2_15
   + 21 xi_2_16 + 21 xi_3_4 + 31 xi_3_5 + 25 xi_3_6 + 23 xi_3_7 + 8 xi_3_8
   + 24 xi_3_9 + 12 xi_3_10 + 25 xi_3_11 + 9 xi_3_12 + 17 xi_3_13
   + 37 xi_3_14 + 16 xi_3_15 + 33 xi_3_16 + 36 xi_4_5 + 24 xi_4_6
   + 30 xi_4_7 + 26 xi_4_8 + 37 xi_4_9 + 12 xi_4_10 + 7 xi_4_11
   + 13 xi_4_12 + 30 xi_4_13 + 44 xi_4_14 + 9 xi_4_15 + 22 xi_4_16
   + 13 xi_5_6 + 8 xi_5_7 + 25 xi_5_8 + 13 xi_5_9 + 26 xi_5_10 + 43 xi_5_11
   + 35 xi_5_12 + 16 xi_5_13 + 8 xi_5_14 + 39 xi_5_15 + 23 xi_5_16
   + 10 xi_6_7 + 23 xi_6_8 + 20 xi_6_9 + 16 xi_6_10 + 31 xi_6_11
   + 26 xi_6_12 + 17 xi_6_13 + 21 xi_6_14 + 28 xi_6_15 + 12 xi_6_16
   + 18 xi_7_8 + 10 xi_7_9 + 19 xi_7_10 + 37 xi_7_11 + 28 xi_7_12
   + 9 xi_7_13 + 15 xi_7_14 + 32 xi_7_15 + 22 xi_7_16 + 17 xi_8_9
   + 15 xi_8_10 + 32 xi_8_11 + 17 xi_8_12 + 10 xi_8_13 + 31 xi_8_14
   + 23 xi_8_15 + 32 xi_8_16 + 25 xi_9_10 + 44 xi_9_11 + 31 xi_9_12
   + 7 xi_9_13 + 16 xi_9_14 + 37 xi_9_15 + 32 xi_9_16 + 19 xi_10_11
   + 10 xi_10_12 + 18 xi_10_13 + 34 xi_10_14 + 13 xi_10_15 + 21 xi_10_16
   + 16 xi_11_12 + 37 xi_11_13 + 51 xi_11_14 + 10 xi_11_15 + 28 xi_11_16
   + 24 xi_12_13 + 43 xi_12_14 + 6 xi_12_15 + 30 xi_12_16 + 21 xi_13_14
   + 30 xi_13_15 + 29 xi_13_16 + 47 xi_14_15 + 31 xi_14_16 + 30 xi_15_16
Subject To
 R0: x_0_1 - x_1_0 - x_1_2 - x_1_3 - x_1_4 - x_1_5 - x_1_6 - x_1_7 - x_1_8
   - x_1_9 - x_1_10 - x_1_11 - x_1_12 - x_1_13 - x_1_14 - x_1_15 - x_1_16
   + x_2_1 + x_3_1 + x_4_1 + x_5_1 + x_6_1 + x_7_1 + x_8_1 + x_9_1 + x_10_1
   + x_11_1 + x_12_1 + x_13_1 + x_14_1 + x_15_1 + x_16_1 = 38
 R1: x_0_2 + x_1_2 - x_2_0 - x_2_1 - x_2_3 - x_2_4 - x_2_5 - x_2_6 - x_2_7
   - x_2_8 - x_2_9 - x_2_10 - x_2_11 - x_2_12 - x_2_13 - x_2_14 - x_2_15
   - x_2_16 + x_3_2 + x_4_2 + x_5_2 + x_6_2 + x_7_2 + x_8_2 + x_9_2
   + x_10_2 + x_11_2 + x_12_2 + x_13_2 + x_14_2 + x_15_2 + x_16_2 = 60
 R2: x_0_3 + x_1_3 + x_2_3 - x_3_0 - x_3_1 - x_3_2 - x_3_4 - x_3_5 - x_3_6
   - x_3_7 - x_3_8 - x_3_9 - x_3_10 - x_3_11 - x_3_12 - x_3_13 - x_3_14
   - x_3_15 - x_3_16 + x_4_3 + x_5_3 + x_6_3 + x_7_3 + x_8_3 + x_9_3
   + x_10_3 + x_11_3 + x_12_3 + x_13_3 + x_14_3 + x_15_3 + x_16_3 = 32
 R3: x_0_4 + x_1_4 + x_2_4 + x_3_4 - x_4_0 - x_4_1 - x_4_2 - x_4_3 - x_4_5
   - x_4_6 - x_4_7 - x_4_8 - x_4_9 - x_4_10 - x_4_11 - x_4_12 - x_4_13
   - x_4_14 - x_4_15 - x_4_16 + x_5_4 + x_6_4 + x_7_4 + x_8_4 + x_9_4
   + x_10_4 + x_11_4 + x_12_4 + x_13_4 + x_14_4 + x_15_4 + x_16_4 = 46
 R4: x_0_5 + x_1_5 + x_2_5 + x_3_5 + x_4_5 - x_5_0 - x_5_1 - x_5_2 - x_5_3
   - x_5_4 - x_5_6 - x_5_7 - x_5_8 - x_5_9 - x_5_10 - x_5_11 - x_5_12
   - x_5_13 - x_5_14 - x_5_15 - x_5_16 + x_6_5 + x_7_5 + x_8_5 + x_9_5
   + x_10_5 + x_11_5 + x_12_5 + x_13_5 + x_14_5 + x_15_5 + x_16_5 = 22
 R5: x_0_6 + x_1_6 + x_2_6 + x_3_6 + x_4_6 + x_5_6 - x_6_0 - x_6_1 - x_6_2
   - x_6_3 - x_6_4 - x_6_5 - x_6_7 - x_6_8 - x_6_9 - x_6_10 - x_6_11
   - x_6_12 - x_6_13 - x_6_14 - x_6_15 - x_6_16 + x_7_6 + x_8_6 + x_9_6
   + x_10_6 + x_11_6 + x_12_6 + x_13_6 + x_14_6 + x_15_6 + x_16_6 = 62
 R6: x_0_7 + x_1_7 + x_2_7 + x_3_7 + x_4_7 + x_5_7 + x_6_7 - x_7_0 - x_7_1
   - x_7_2 - x_7_3 - x_7_4 - x_7_5 - x_7_6 - x_7_8 - x_7_9 - x_7_10
   - x_7_11 - x_7_12 - x_7_13 - x_7_14 - x_7_15 - x_7_16 + x_8_7 + x_9_7
   + x_10_7 + x_11_7 + x_12_7 + x_13_7 + x_14_7 + x_15_7 + x_16_7 = 30
 R7: x_0_8 + x_1_8 + x_2_8 + x_3_8 + x_4_8 + x_5_8 + x_6_8 + x_7_8 - x_8_0
   - x_8_1 - x_8_2 - x_8_3 - x_8_4 - x_8_5 - x_8_6 - x_8_7 - x_8_9 - x_8_10
   - x_8_11 - x_8_12 - x_8_13 - x_8_14 - x_8_15 - x_8_16 + x_9_8 + x_10_8
   + x_11_8 + x_12_8 + x_13_8 + x_14_8 + x_15_8 + x_16_8 = 56
 R8: x_0_9 + x_1_9 + x_2_9 + x_3_9 + x_4_9 + x_5_9 + x_6_9 + x_7_9 + x_8_9
   - x_9_0 - x_9_1 - x_9_2 - x_9_3 - x_9_4 - x_9_5 - x_9_6 - x_9_7 - x_9_8
   - x_9_10 - x_9_11 - x_9_12 - x_9_13 - x_9_14 - x_9_15 - x_9_16 + x_10_9
   + x_11_9 + x_12_9 + x_13_9 + x_14_9 + x_15_9 + x_16_9 = 16
 R9: x_0_10 + x_1_10 + x_2_10 + x_3_10 + x_4_10 + x_5_10 + x_6_10 + x_7_10
   + x_8_10 + x_9_10 - x_10_0 - x_10_1 - x_10_2 - x_10_3 - x_10_4 - x_10_5
   - x_10_6 - x_10_7 - x_10_8 - x_10_9 - x_10_11 - x_10_12 - x_10_13
   - x_10_14 - x_10_15 - x_10_16 + x_11_10 + x_12_10 + x_13_10 + x_14_10
   + x_15_10 + x_16_10 = 16
 R10: x_0_11 + x_1_11 + x_2_11 + x_3_11 + x_4_11 + x_5_11 + x_6_11 + x_7_11
   + x_8_11 + x_9_11 + x_10_11 - x_11_0 - x_11_1 - x_11_2 - x_11_3 - x_11_4
   - x_11_5 - x_11_6 - x_11_7 - x_11_8 - x_11_9 - x_11_10 - x_11_12
   - x_11_13 - x_11_14 - x_11_15 - x_11_16 + x_12_11 + x_13_11 + x_14_11
   + x_15_11 + x_16_11 = 14
 R11: x_0_12 + x_1_12 + x_2_12 + x_3_12 + x_4_12 + x_5_12 + x_6_12 + x_7_12
   + x_8_12 + x_9_12 + x_10_12 + x_11_12 - x_12_0 - x_12_1 - x_12_2
   - x_12_3 - x_12_4 - x_12_5 - x_12_6 - x_12_7 - x_12_8 - x_12_9 - x_12_10
   - x_12_11 - x_12_13 - x_12_14 - x_12_15 - x_12_16 + x_13_12 + x_14_12
   + x_15_12 + x_16_12 = 28
 R12: x_0_13 + x_1_13 + x_2_13 + x_3_13 + x_4_13 + x_5_13 + x_6_13 + x_7_13
   + x_8_13 + x_9_13 + x_10_13 + x_11_13 + x_12_13 - x_13_0 - x_13_1
   - x_13_2 - x_13_3 - x_13_4 - x_13_5 - x_13_6 - x_13_7 - x_13_8 - x_13_9
   - x_13_10 - x_13_11 - x_13_12 - x_13_14 - x_13_15 - x_13_16 + x_14_13
   + x_15_13 + x_16_13 = 12
 R13: x_0_14 + x_1_14 + x_2_14 + x_3_14 + x_4_14 + x_5_14 + x_6_14 + x_7_14
   + x_8_14 + x_9_14 + x_10_14 + x_11_14 + x_12_14 + x_13_14 - x_14_0
   - x_14_1 - x_14_2 - x_14_3 - x_14_4 - x_14_5 - x_14_6 - x_14_7 - x_14_8
   - x_14_9 - x_14_10 - x_14_11 - x_14_12 - x_14_13 - x_14_15 - x_14_16
   + x_15_14 + x_16_14 = 38
 R14: x_0_15 + x_1_15 + x_2_15 + x_3_15 + x_4_15 + x_5_15 + x_6_15 + x_7_15
   + x_8_15 + x_9_15 + x_10_15 + x_11_15 + x_12_15 + x_13_15 + x_14_15
   - x_15_0 - x_15_1 - x_15_2 - x_15_3 - x_15_4 - x_15_5 - x_15_6 - x_15_7
   - x_15_8 - x_15_9 - x_15_10 - x_15_11 - x_15_12 - x_15_13 - x_15_14
   - x_15_16 + x_16_15 = 22
 R15: x_0_1 + x_0_2 + x_0_3 + x_0_4 + x_0_5 + x_0_6 + x_0_7 + x_0_8 + x_0_9
   + x_0_10 + x_0_11 + x_0_12 + x_0_13 + x_0_14 + x_0_15 = 246
 R16: x_1_0 + x_2_0 + x_3_0 + x_4_0 + x_5_0 + x_6_0 + x_7_0 + x_8_0 + x_9_0
   + x_10_0 + x_11_0 + x_12_0 + x_13_0 + x_14_0 + x_15_0 - 35 C544 = -246
 R17: x_16_1 + x_16_2 + x_16_3 + x_16_4 + x_16_5 + x_16_6 + x_16_7 + x_16_8
   + x_16_9 + x_16_10 + x_16_11 + x_16_12 + x_16_13 + x_16_14 + x_16_15
   - 35 C544 = 0
 R18: - 35 xi_0_1 + x_0_1 + x_1_0 = 0
 R19: - 35 xi_0_2 + x_0_2 + x_2_0 = 0
 R20: - 35 xi_0_3 + x_0_3 + x_3_0 = 0
 R21: - 35 xi_0_4 + x_0_4 + x_4_0 = 0
 R22: - 35 xi_0_5 + x_0_5 + x_5_0 = 0
 R23: - 35 xi_0_6 + x_0_6 + x_6_0 = 0
 R24: - 35 xi_0_7 + x_0_7 + x_7_0 = 0
 R25: - 35 xi_0_8 + x_0_8 + x_8_0 = 0
 R26: - 35 xi_0_9 + x_0_9 + x_9_0 = 0
 R27: - 35 xi_0_10 + x_0_10 + x_10_0 = 0
 R28: - 35 xi_0_11 + x_0_11 + x_11_0 = 0
 R29: - 35 xi_0_12 + x_0_12 + x_12_0 = 0
 R30: - 35 xi_0_13 + x_0_13 + x_13_0 = 0
 R31: - 35 xi_0_14 + x_0_14 + x_14_0 = 0
 R32: - 35 xi_0_15 + x_0_15 + x_15_0 = 0
 R33: - 35 xi_0_16 + x_0_16 + x_16_0 = 0
 R34: - 35 xi_1_0 + x_0_1 + x_1_0 = 0
 R35: - 35 xi_1_2 + x_1_2 + x_2_1 = 0
 R36: - 35 xi_1_3 + x_1_3 + x_3_1 = 0
 R37: - 35 xi_1_4 + x_1_4 + x_4_1 = 0
 R38: - 35 xi_1_5 + x_1_5 + x_5_1 = 0
 R39: - 35 xi_1_6 + x_1_6 + x_6_1 = 0
 R40: - 35 xi_1_7 + x_1_7 + x_7_1 = 0
 R41: - 35 xi_1_8 + x_1_8 + x_8_1 = 0
 R42: - 35 xi_1_9 + x_1_9 + x_9_1 = 0
 R43: - 35 xi_1_10 + x_1_10 + x_10_1 = 0
 R44: - 35 xi_1_11 + x_1_11 + x_11_1 = 0
 R45: - 35 xi_1_12 + x_1_12 + x_12_1 = 0
 R46: - 35 xi_1_13 + x_1_13 + x_13_1 = 0
 R47: - 35 xi_1_14 + x_1_14 + x_14_1 = 0
 R48: - 35 xi_1_15 + x_1_15 + x_15_1 = 0
 R49: - 35 xi_1_16 + x_1_16 + x_16_1 = 0
 R50: - 35 xi_2_0 + x_0_2 + x_2_0 = 0
 R51: - 35 xi_2_1 + x_1_2 + x_2_1 = 0
 R52: - 35 xi_2_3 + x_2_3 + x_3_2 = 0
 R53: - 35 xi_2_4 + x_2_4 + x_4_2 = 0
 R54: - 35 xi_2_5 + x_2_5 + x_5_2 = 0
 R55: - 35 xi_2_6 + x_2_6 + x_6_2 = 0
 R56: - 35 xi_2_7 + x_2_7 + x_7_2 = 0
 R57: - 35 xi_2_8 + x_2_8 + x_8_2 = 0
 R58: - 35 xi_2_9 + x_2_9 + x_9_2 = 0
 R59: - 35 xi_2_10 + x_2_10 + x_10_2 = 0
 R60: - 35 xi_2_11 + x_2_11 + x_11_2 = 0
 R61: - 35 xi_2_12 + x_2_12 + x_12_2 = 0
 R62: - 35 xi_2_13 + x_2_13 + x_13_2 = 0
 R63: - 35 xi_2_14 + x_2_14 + x_14_2 = 0
 R64: - 35 xi_2_15 + x_2_15 + x_15_2 = 0
 R65: - 35 xi_2_16 + x_2_16 + x_16_2 = 0
 R66: - 35 xi_3_0 + x_0_3 + x_3_0 = 0
 R67: - 35 xi_3_1 + x_1_3 + x_3_1 = 0
 R68: - 35 xi_3_2 + x_2_3 + x_3_2 = 0
 R69: - 35 xi_3_4 + x_3_4 + x_4_3 = 0
 R70: - 35 xi_3_5 + x_3_5 + x_5_3 = 0
 R71: - 35 xi_3_6 + x_3_6 + x_6_3 = 0
 R72: - 35 xi_3_7 + x_3_7 + x_7_3 = 0
 R73: - 35 xi_3_8 + x_3_8 + x_8_3 = 0
 R74: - 35 xi_3_9 + x_3_9 + x_9_3 = 0
 R75: - 35 xi_3_10 + x_3_10 + x_10_3 = 0
 R76: - 35 xi_3_11 + x_3_11 + x_11_3 = 0
 R77: - 35 xi_3_12 + x_3_12 + x_12_3 = 0
 R78: - 35 xi_3_13 + x_3_13 + x_13_3 = 0
 R79: - 35 xi_3_14 + x_3_14 + x_14_3 = 0
 R80: - 35 xi_3_15 + x_3_15 + x_15_3 = 0
 R81: - 35 xi_3_16 + x_3_16 + x_16_3 = 0
 R82: - 35 xi_4_0 + x_0_4 + x_4_0 = 0
 R83: - 35 xi_4_1 + x_1_4 + x_4_1 = 0
 R84: - 35 xi_4_2 + x_2_4 + x_4_2 = 0
 R85: - 35 xi_4_3 + x_3_4 + x_4_3 = 0
 R86: - 35 xi_4_5 + x_4_5 + x_5_4 = 0
 R87: - 35 xi_4_6 + x_4_6 + x_6_4 = 0
 R88: - 35 xi_4_7 + x_4_7 + x_7_4 = 0
 R89: - 35 xi_4_8 + x_4_8 + x_8_4 = 0
 R90: - 35 xi_4_9 + x_4_9 + x_9_4 = 0
 R91: - 35 xi_4_10 + x_4_10 + x_10_4 = 0
 R92: - 35 xi_4_11 + x_4_11 + x_11_4 = 0
 R93: - 35 xi_4_12 + x_4_12 + x_12_4 = 0
 R94: - 35 xi_4_13 + x_4_13 + x_13_4 = 0
 R95: - 35 xi_4_14 + x_4_14 + x_14_4 = 0
 R96: - 35 xi_4_15 + x_4_15 + x_15_4 = 0
 R97: - 35 xi_4_16 + x_4_16 + x_16_4 = 0
 R98: - 35 xi_5_0 + x_0_5 + x_5_0 = 0
 R99: - 35 xi_5_1 + x_1_5 + x_5_1 = 0
 R100: - 35 xi_5_2 + x_2_5 + x_5_2 = 0
 R101: - 35 xi_5_3 + x_3_5 + x_5_3 = 0
 R102: - 35 xi_5_4 + x_4_5 + x_5_4 = 0
 R103: - 35 xi_5_6 + x_5_6 + x_6_5 = 0
 R104: - 35 xi_5_7 + x_5_7 + x_7_5 = 0
 R105: - 35 xi_5_8 + x_5_8 + x_8_5 = 0
 R106: - 35 xi_5_9 + x_5_9 + x_9_5 = 0
 R107: - 35 xi_5_10 + x_5_10 + x_10_5 = 0
 R108: - 35 xi_5_11 + x_5_11 + x_11_5 = 0
 R109: - 35 xi_5_12 + x_5_12 + x_12_5 = 0
 R110: - 35 xi_5_13 + x_5_13 + x_13_5 = 0
 R111: - 35 xi_5_14 + x_5_14 + x_14_5 = 0
 R112: - 35 xi_5_15 + x_5_15 + x_15_5 = 0
 R113: - 35 xi_5_16 + x_5_16 + x_16_5 = 0
 R114: - 35 xi_6_0 + x_0_6 + x_6_0 = 0
 R115: - 35 xi_6_1 + x_1_6 + x_6_1 = 0
 R116: - 35 xi_6_2 + x_2_6 + x_6_2 = 0
 R117: - 35 xi_6_3 + x_3_6 + x_6_3 = 0
 R118: - 35 xi_6_4 + x_4_6 + x_6_4 = 0
 R119: - 35 xi_6_5 + x_5_6 + x_6_5 = 0
 R120: - 35 xi_6_7 + x_6_7 + x_7_6 = 0
 R121: - 35 xi_6_8 + x_6_8 + x_8_6 = 0
 R122: - 35 xi_6_9 + x_6_9 + x_9_6 = 0
 R123: - 35 xi_6_10 + x_6_10 + x_10_6 = 0
 R124: - 35 xi_6_11 + x_6_11 + x_11_6 = 0
 R125: - 35 xi_6_12 + x_6_12 + x_12_6 = 0
 R126: - 35 xi_6_13 + x_6_13 + x_13_6 = 0
 R127: - 35 xi_6_14 + x_6_14 + x_14_6 = 0
 R128: - 35 xi_6_15 + x_6_15 + x_15_6 = 0
 R129: - 35 xi_6_16 + x_6_16 + x_16_6 = 0
 R130: - 35 xi_7_0 + x_0_7 + x_7_0 = 0
 R131: - 35 xi_7_1 + x_1_7 + x_7_1 = 0
 R132: - 35 xi_7_2 + x_2_7 + x_7_2 = 0
 R133: - 35 xi_7_3 + x_3_7 + x_7_3 = 0
 R134: - 35 xi_7_4 + x_4_7 + x_7_4 = 0
 R135: - 35 xi_7_5 + x_5_7 + x_7_5 = 0
 R136: - 35 xi_7_6 + x_6_7 + x_7_6 = 0
 R137: - 35 xi_7_8 + x_7_8 + x_8_7 = 0
 R138: - 35 xi_7_9 + x_7_9 + x_9_7 = 0
 R139: - 35 xi_7_10 + x_7_10 + x_10_7 = 0
 R140: - 35 xi_7_11 + x_7_11 + x_11_7 = 0
 R141: - 35 xi_7_12 + x_7_12 + x_12_7 = 0
 R142: - 35 xi_7_13 + x_7_13 + x_13_7 = 0
 R143: - 35 xi_7_14 + x_7_14 + x_14_7 = 0
 R144: - 35 xi_7_15 + x_7_15 + x_15_7 = 0
 R145: - 35 xi_7_16 + x_7_16 + x_16_7 = 0
 R146: - 35 xi_8_0 + x_0_8 + x_8_0 = 0
 R147: - 35 xi_8_1 + x_1_8 + x_8_1 = 0
 R148: - 35 xi_8_2 + x_2_8 + x_8_2 = 0
 R149: - 35 xi_8_3 + x_3_8 + x_8_3 = 0
 R150: - 35 xi_8_4 + x_4_8 + x_8_4 = 0
 R151: - 35 xi_8_5 + x_5_8 + x_8_5 = 0
 R152: - 35 xi_8_6 + x_6_8 + x_8_6 = 0
 R153: - 35 xi_8_7 + x_7_8 + x_8_7 = 0
 R154: - 35 xi_8_9 + x_8_9 + x_9_8 = 0
 R155: - 35 xi_8_10 + x_8_10 + x_10_8 = 0
 R156: - 35 xi_8_11 + x_8_11 + x_11_8 = 0
 R157: - 35 xi_8_12 + x_8_12 + x_12_8 = 0
 R158: - 35 xi_8_13 + x_8_13 + x_13_8 = 0
 R159: - 35 xi_8_14 + x_8_14 + x_14_8 = 0
 R160: - 35 xi_8_15 + x_8_15 + x_15_8 = 0
 R161: - 35 xi_8_16 + x_8_16 + x_16_8 = 0
 R162: - 35 xi_9_0 + x_0_9 + x_9_0 = 0
 R163: - 35 xi_9_1 + x_1_9 + x_9_1 = 0
 R164: - 35 xi_9_2 + x_2_9 + x_9_2 = 0
 R165: - 35 xi_9_3 + x_3_9 + x_9_3 = 0
 R166: - 35 xi_9_4 + x_4_9 + x_9_4 = 0
 R167: - 35 xi_9_5 + x_5_9 + x_9_5 = 0
 R168: - 35 xi_9_6 + x_6_9 + x_9_6 = 0
 R169: - 35 xi_9_7 + x_7_9 + x_9_7 = 0
 R170: - 35 xi_9_8 + x_8_9 + x_9_8 = 0
 R171: - 35 xi_9_10 + x_9_10 + x_10_9 = 0
 R172: - 35 xi_9_11 + x_9_11 + x_11_9 = 0
 R173: - 35 xi_9_12 + x_9_12 + x_12_9 = 0
 R174: - 35 xi_9_13 + x_9_13 + x_13_9 = 0
 R175: - 35 xi_9_14 + x_9_14 + x_14_9 = 0
 R176: - 35 xi_9_15 + x_9_15 + x_15_9 = 0
 R177: - 35 xi_9_16 + x_9_16 + x_16_9 = 0
 R178: - 35 xi_10_0 + x_0_10 + x_10_0 = 0
 R179: - 35 xi_10_1 + x_1_10 + x_10_1 = 0
 R180: - 35 xi_10_2 + x_2_10 + x_10_2 = 0
 R181: - 35 xi_10_3 + x_3_10 + x_10_3 = 0
 R182: - 35 xi_10_4 + x_4_10 + x_10_4 = 0
 R183: - 35 xi_10_5 + x_5_10 + x_10_5 = 0
 R184: - 35 xi_10_6 + x_6_10 + x_10_6 = 0
 R185: - 35 xi_10_7 + x_7_10 + x_10_7 = 0
 R186: - 35 xi_10_8 + x_8_10 + x_10_8 = 0
 R187: - 35 xi_10_9 + x_9_10 + x_10_9 = 0
 R188: - 35 xi_10_11 + x_10_11 + x_11_10 = 0
 R189: - 35 xi_10_12 + x_10_12 + x_12_10 = 0
 R190: - 35 xi_10_13 + x_10_13 + x_13_10 = 0
 R191: - 35 xi_10_14 + x_10_14 + x_14_10 = 0
 R192: - 35 xi_10_15 + x_10_15 + x_15_10 = 0
 R193: - 35 xi_10_16 + x_10_16 + x_16_10 = 0
 R194: - 35 xi_11_0 + x_0_11 + x_11_0 = 0
 R195: - 35 xi_11_1 + x_1_11 + x_11_1 = 0
 R196: - 35 xi_11_2 + x_2_11 + x_11_2 = 0
 R197: - 35 xi_11_3 + x_3_11 + x_11_3 = 0
 R198: - 35 xi_11_4 + x_4_11 + x_11_4 = 0
 R199: - 35 xi_11_5 + x_5_11 + x_11_5 = 0
 R200: - 35 xi_11_6 + x_6_11 + x_11_6 = 0
 R201: - 35 xi_11_7 + x_7_11 + x_11_7 = 0
 R202: - 35 xi_11_8 + x_8_11 + x_11_8 = 0
 R203: - 35 xi_11_9 + x_9_11 + x_11_9 = 0
 R204: - 35 xi_11_10 + x_10_11 + x_11_10 = 0
 R205: - 35 xi_11_12 + x_11_12 + x_12_11 = 0
 R206: - 35 xi_11_13 + x_11_13 + x_13_11 = 0
 R207: - 35 xi_11_14 + x_11_14 + x_14_11 = 0
 R208: - 35 xi_11_15 + x_11_15 + x_15_11 = 0
 R209: - 35 xi_11_16 + x_11_16 + x_16_11 = 0
 R210: - 35 xi_12_0 + x_0_12 + x_12_0 = 0
 R211: - 35 xi_12_1 + x_1_12 + x_12_1 = 0
 R212: - 35 xi_12_2 + x_2_12 + x_12_2 = 0
 R213: - 35 xi_12_3 + x_3_12 + x_12_3 = 0
 R214: - 35 xi_12_4 + x_4_12 + x_12_4 = 0
 R215: - 35 xi_12_5 + x_5_12 + x_12_5 = 0
 R216: - 35 xi_12_6 + x_6_12 + x_12_6 = 0
 R217: - 35 xi_12_7 + x_7_12 + x_12_7 = 0
 R218: - 35 xi_12_8 + x_8_12 + x_12_8 = 0
 R219: - 35 xi_12_9 + x_9_12 + x_12_9 = 0
 R220: - 35 xi_12_10 + x_10_12 + x_12_10 = 0
 R221: - 35 xi_12_11 + x_11_12 + x_12_11 = 0
 R222: - 35 xi_12_13 + x_12_13 + x_13_12 = 0
 R223: - 35 xi_12_14 + x_12_14 + x_14_12 = 0
 R224: - 35 xi_12_15 + x_12_15 + x_15_12 = 0
 R225: - 35 xi_12_16 + x_12_16 + x_16_12 = 0
 R226: - 35 xi_13_0 + x_0_13 + x_13_0 = 0
 R227: - 35 xi_13_1 + x_1_13 + x_13_1 = 0
 R228: - 35 xi_13_2 + x_2_13 + x_13_2 = 0
 R229: - 35 xi_13_3 + x_3_13 + x_13_3 = 0
 R230: - 35 xi_13_4 + x_4_13 + x_13_4 = 0
 R231: - 35 xi_13_5 + x_5_13 + x_13_5 = 0
 R232: - 35 xi_13_6 + x_6_13 + x_13_6 = 0
 R233: - 35 xi_13_7 + x_7_13 + x_13_7 = 0
 R234: - 35 xi_13_8 + x_8_13 + x_13_8 = 0
 R235: - 35 xi_13_9 + x_9_13 + x_13_9 = 0
 R236: - 35 xi_13_10 + x_10_13 + x_13_10 = 0
 R237: - 35 xi_13_11 + x_11_13 + x_13_11 = 0
 R238: - 35 xi_13_12 + x_12_13 + x_13_12 = 0
 R239: - 35 xi_13_14 + x_13_14 + x_14_13 = 0
 R240: - 35 xi_13_15 + x_13_15 + x_15_13 = 0
 R241: - 35 xi_13_16 + x_13_16 + x_16_13 = 0
 R242: - 35 xi_14_0 + x_0_14 + x_14_0 = 0
 R243: - 35 xi_14_1 + x_1_14 + x_14_1 = 0
 R244: - 35 xi_14_2 + x_2_14 + x_14_2 = 0
 R245: - 35 xi_14_3 + x_3_14 + x_14_3 = 0
 R246: - 35 xi_14_4 + x_4_14 + x_14_4 = 0
 R247: - 35 xi_14_5 + x_5_14 + x_14_5 = 0
 R248: - 35 xi_14_6 + x_6_14 + x_14_6 = 0
 R249: - 35 xi_14_7 + x_7_14 + x_14_7 = 0
 R250: - 35 xi_14_8 + x_8_14 + x_14_8 = 0
 R251: - 35 xi_14_9 + x_9_14 + x_14_9 = 0
 R252: - 35 xi_14_10 + x_10_14 + x_14_10 = 0
 R253: - 35 xi_14_11 + x_11_14 + x_14_11 = 0
 R254: - 35 xi_14_12 + x_12_14 + x_14_12 = 0
 R255: - 35 xi_14_13 + x_13_14 + x_14_13 = 0
 R256: - 35 xi_14_15 + x_14_15 + x_15_14 = 0
 R257: - 35 xi_14_16 + x_14_16 + x_16_14 = 0
 R258: - 35 xi_15_0 + x_0_15 + x_15_0 = 0
 R259: - 35 xi_15_1 + x_1_15 + x_15_1 = 0
 R260: - 35 xi_15_2 + x_2_15 + x_15_2 = 0
 R261: - 35 xi_15_3 + x_3_15 + x_15_3 = 0
 R262: - 35 xi_15_4 + x_4_15 + x_15_4 = 0
 R263: - 35 xi_15_5 + x_5_15 + x_15_5 = 0
 R264: - 35 xi_15_6 + x_6_15 + x_15_6 = 0
 R265: - 35 xi_15_7 + x_7_15 + x_15_7 = 0
 R266: - 35 xi_15_8 + x_8_15 + x_15_8 = 0
 R267: - 35 xi_15_9 + x_9_15 + x_15_9 = 0
 R268: - 35 xi_15_10 + x_10_15 + x_15_10 = 0
 R269: - 35 xi_15_11 + x_11_15 + x_15_11 = 0
 R270: - 35 xi_15_12 + x_12_15 + x_15_12 = 0
 R271: - 35 xi_15_13 + x_13_15 + x_15_13 = 0
 R272: - 35 xi_15_14 + x_14_15 + x_15_14 = 0
 R273: - 35 xi_15_16 + x_15_16 + x_16_15 = 0
 R274: - 35 xi_16_0 + x_0_16 + x_16_0 = 0
 R275: - 35 xi_16_1 + x_1_16 + x_16_1 = 0
 R276: - 35 xi_16_2 + x_2_16 + x_16_2 = 0
 R277: - 35 xi_16_3 + x_3_16 + x_16_3 = 0
 R278: - 35 xi_16_4 + x_4_16 + x_16_4 = 0
 R279: - 35 xi_16_5 + x_5_16 + x_16_5 = 0
 R280: - 35 xi_16_6 + x_6_16 + x_16_6 = 0
 R281: - 35 xi_16_7 + x_7_16 + x_16_7 = 0
 R282: - 35 xi_16_8 + x_8_16 + x_16_8 = 0
 R283: - 35 xi_16_9 + x_9_16 + x_16_9 = 0
 R284: - 35 xi_16_10 + x_10_16 + x_16_10 = 0
 R285: - 35 xi_16_11 + x_11_16 + x_16_11 = 0
 R286: - 35 xi_16_12 + x_12_16 + x_16_12 = 0
 R287: - 35 xi_16_13 + x_13_16 + x_16_13 = 0
 R288: - 35 xi_16_14 + x_14_16 + x_16_14 = 0
 R289: - 35 xi_16_15 + x_15_16 + x_16_15 = 0
 R290: xi_0_1 + xi_1_2 + xi_1_3 + xi_1_4 + xi_1_5 + xi_1_6 + xi_1_7
   + xi_1_8 + xi_1_9 + xi_1_10 + xi_1_11 + xi_1_12 + xi_1_13 + xi_1_14
   + xi_1_15 + xi_1_16 = 2
 R291: xi_0_2 + xi_1_2 + xi_2_3 + xi_2_4 + xi_2_5 + xi_2_6 + xi_2_7
   + xi_2_8 + xi_2_9 + xi_2_10 + xi_2_11 + xi_2_12 + xi_2_13 + xi_2_14
   + xi_2_15 + xi_2_16 = 2
 R292: xi_0_3 + xi_1_3 + xi_2_3 + xi_3_4 + xi_3_5 + xi_3_6 + xi_3_7
   + xi_3_8 + xi_3_9 + xi_3_10 + xi_3_11 + xi_3_12 + xi_3_13 + xi_3_14
   + xi_3_15 + xi_3_16 = 2
 R293: xi_0_4 + xi_1_4 + xi_2_4 + xi_3_4 + xi_4_5 + xi_4_6 + xi_4_7
   + xi_4_8 + xi_4_9 + xi_4_10 + xi_4_11 + xi_4_12 + xi_4_13 + xi_4_14
   + xi_4_15 + xi_4_16 = 2
 R294: xi_0_5 + xi_1_5 + xi_2_5 + xi_3_5 + xi_4_5 + xi_5_6 + xi_5_7
   + xi_5_8 + xi_5_9 + xi_5_10 + xi_5_11 + xi_5_12 + xi_5_13 + xi_5_14
   + xi_5_15 + xi_5_16 = 2
 R295: xi_0_6 + xi_1_6 + xi_2_6 + xi_3_6 + xi_4_6 + xi_5_6 + xi_6_7
   + xi_6_8 + xi_6_9 + xi_6_10 + xi_6_11 + xi_6_12 + xi_6_13 + xi_6_14
   + xi_6_15 + xi_6_16 = 2
 R296: xi_0_7 + xi_1_7 + xi_2_7 + xi_3_7 + xi_4_7 + xi_5_7 + xi_6_7
   + xi_7_8 + xi_7_9 + xi_7_10 + xi_7_11 + xi_7_12 + xi_7_13 + xi_7_14
   + xi_7_15 + xi_7_16 = 2
 R297: xi_0_8 + xi_1_8 + xi_2_8 + xi_3_8 + xi_4_8 + xi_5_8 + xi_6_8
   + xi_7_8 + xi_8_9 + xi_8_10 + xi_8_11 + xi_8_12 + xi_8_13 + xi_8_14
   + xi_8_15 + xi_8_16 = 2
 R298: xi_0_9 + xi_1_9 + xi_2_9 + xi_3_9 + xi_4_9 + xi_5_9 + xi_6_9
   + xi_7_9 + xi_8_9 + xi_9_10 + xi_9_11 + xi_9_12 + xi_9_13 + xi_9_14
   + xi_9_15 + xi_9_16 = 2
 R299: xi_0_10 + xi_1_10 + xi_2_10 + xi_3_10 + xi_4_10 + xi_5_10 + xi_6_10
   + xi_7_10 + xi_8_10 + xi_9_10 + xi_10_11 + xi_10_12 + xi_10_13
   + xi_10_14 + xi_10_15 + xi_10_16 = 2
 R300: xi_0_11 + xi_1_11 + xi_2_11 + xi_3_11 + xi_4_11 + xi_5_11 + xi_6_11
   + xi_7_11 + xi_8_11 + xi_9_11 + xi_10_11 + xi_11_12 + xi_11_13
   + xi_11_14 + xi_11_15 + xi_11_16 = 2
 R301: xi_0_12 + xi_1_12 + xi_2_12 + xi_3_12 + xi_4_12 + xi_5_12 + xi_6_12
   + xi_7_12 + xi_8_12 + xi_9_12 + xi_10_12 + xi_11_12 + xi_12_13
   + xi_12_14 + xi_12_15 + xi_12_16 = 2
 R302: xi_0_13 + xi_1_13 + xi_2_13 + xi_3_13 + xi_4_13 + xi_5_13 + xi_6_13
   + xi_7_13 + xi_8_13 + xi_9_13 + xi_10_13 + xi_11_13 + xi_12_13
   + xi_13_14 + xi_13_15 + xi_13_16 = 2
 R303: xi_0_14 + xi_1_14 + xi_2_14 + xi_3_14 + xi_4_14 + xi_5_14 + xi_6_14
   + xi_7_14 + xi_8_14 + xi_9_14 + xi_10_14 + xi_11_14 + xi_12_14
   + xi_13_14 + xi_14_15 + xi_14_16 = 2
 R304: xi_0_15 + xi_1_15 + xi_2_15 + xi_3_15 + xi_4_15 + xi_5_15 + xi_6_15
   + xi_7_15 + xi_8_15 + xi_9_15 + xi_10_15 + xi_11_15 + xi_12_15
   + xi_13_15 + xi_14_15 + xi_15_16 = 2
Bounds
 1 <= C544 <= 15
Binaries
 xi_0_1 xi_0_2 xi_0_3 xi_0_4 xi_0_5 xi_0_6 xi_0_7 xi_0_8 xi_0_9 xi_0_10
 xi_0_11 xi_0_12 xi_0_13 xi_0_14 xi_0_15 xi_0_16 xi_1_0 xi_1_2 xi_1_3
 xi_1_4 xi_1_5 xi_1_6 xi_1_7 xi_1_8 xi_1_9 xi_1_10 xi_1_11 xi_1_12 xi_1_13
 xi_1_14 xi_1_15 xi_1_16 xi_2_0 xi_2_1 xi_2_3 xi_2_4 xi_2_5 xi_2_6 xi_2_7
 xi_2_8 xi_2_9 xi_2_10 xi_2_11 xi_2_12 xi_2_13 xi_2_14 xi_2_15 xi_2_16
 xi_3_0 xi_3_1 xi_3_2 xi_3_4 xi_3_5 xi_3_6 xi_3_7 xi_3_8 xi_3_9 xi_3_10
 xi_3_11 xi_3_12 xi_3_13 xi_3_14 xi_3_15 xi_3_16 xi_4_0 xi_4_1 xi_4_2
 xi_4_3 xi_4_5 xi_4_6 xi_4_7 xi_4_8 xi_4_9 xi_4_10 xi_4_11 xi_4_12 xi_4_13
 xi_4_14 xi_4_15 xi_4_16 xi_5_0 xi_5_1 xi_5_2 xi_5_3 xi_5_4 xi_5_6 xi_5_7
 xi_5_8 xi_5_9 xi_5_10 xi_5_11 xi_5_12 xi_5_13 xi_5_14 xi_5_15 xi_5_16
 xi_6_0 xi_6_1 xi_6_2 xi_6_3 xi_6_4 xi_6_5 xi_6_7 xi_6_8 xi_6_9 xi_6_10
 xi_6_11 xi_6_12 xi_6_13 xi_6_14 xi_6_15 xi_6_16 xi_7_0 xi_7_1 xi_7_2
 xi_7_3 xi_7_4 xi_7_5 xi_7_6 xi_7_8 xi_7_9 xi_7_10 xi_7_11 xi_7_12 xi_7_13
 xi_7_14 xi_7_15 xi_7_16 xi_8_0 xi_8_1 xi_8_2 xi_8_3 xi_8_4 xi_8_5 xi_8_6
 xi_8_7 xi_8_9 xi_8_10 xi_8_11 xi_8_12 xi_8_13 xi_8_14 xi_8_15 xi_8_16
 xi_9_0 xi_9_1 xi_9_2 xi_9_3 xi_9_4 xi_9_5 xi_9_6 xi_9_7 xi_9_8 xi_9_10
 xi_9_11 xi_9_12 xi_9_13 xi_9_14 xi_9_15 xi_9_16 xi_10_0 xi_10_1 xi_10_2
 xi_10_3 xi_10_4 xi_10_5 xi_10_6 xi_10_7 xi_10_8 xi_10_9 xi_10_11 xi_10_12
 xi_10_13 xi_10_14 xi_10_15 xi_10_16 xi_11_0 xi_11_1 xi_11_2 xi_11_3
 xi_11_4 xi_11_5 xi_11_6 xi_11_7 xi_11_8 xi_11_9 xi_11_10 xi_11_12 xi_11_13
 xi_11_14 xi_11_15 xi_11_16 xi_12_0 xi_12_1 xi_12_2 xi_12_3 xi_12_4 xi_12_5
 xi_12_6 xi_12_7 xi_12_8 xi_12_9 xi_12_10 xi_12_11 xi_12_13 xi_12_14
 xi_12_15 xi_12_16 xi_13_0 xi_13_1 xi_13_2 xi_13_3 xi_13_4 xi_13_5 xi_13_6
 xi_13_7 xi_13_8 xi_13_9 xi_13_10 xi_13_11 xi_13_12 xi_13_14 xi_13_15
 xi_13_16 xi_14_0 xi_14_1 xi_14_2 xi_14_3 xi_14_4 xi_14_5 xi_14_6 xi_14_7
 xi_14_8 xi_14_9 xi_14_10 xi_14_11 xi_14_12 xi_14_13 xi_14_15 xi_14_16
 xi_15_0 xi_15_1 xi_15_2 xi_15_3 xi_15_4 xi_15_5 xi_15_6 xi_15_7 xi_15_8
 xi_15_9 xi_15_10 xi_15_11 xi_15_12 xi_15_13 xi_15_14 xi_15_16 xi_16_0
 xi_16_1 xi_16_2 xi_16_3 xi_16_4 xi_16_5 xi_16_6 xi_16_7 xi_16_8 xi_16_9
 xi_16_10 xi_16_11 xi_16_12 xi_16_13 xi_16_14 xi_16_15
Generals
 C544
End
